ilp_joint_2/output/sexual reproduction_ilp.lp
Maximize
  0.00577262969206066 Z_31_1_0 + 0.0160086757737541 Z_31_1_1
   + 0.00189136052628031 Z_31_1_2 + 0.4291116497749075 Z_31_1_3
Subject To
 constraint1_311: Z_31_1_0 + Z_31_1_1 + Z_31_1_2 + Z_31_1_3 <= 1
 constraint2_310: Z_31_1_0 <= 1
 constraint2_311: Z_31_1_1 <= 1
 constraint2_312: Z_31_1_2 <= 1
 constraint2_313: Z_31_1_3 <= 1
Bounds
Binaries
 Z_31_1_0 Z_31_1_1 Z_31_1_2 Z_31_1_3
End
