ilp_joint_2/output/sexual reproduction_ilp.sol
# Solution for model sexual reproduction_srl_ilp
# Objective value = 4.2911164977490751e-01
Z_31_1_0 0
Z_31_1_1 0
Z_31_1_2 0
Z_31_1_3 1
